4,0
6,9
9,8
12,8
15,8
18,8
21,8
24,7
27,7
30,7
33,7
36,7
39,6
42,6
45,6
48,5
51,5
54,5
57,4
60,4
63,4
66,4
69,3
72,3
75,2
78,2
81,1
83,4
83,4
83,4
83,4
83,4
83,4
83,4
83,4
83,4
83,4
83,4
83,4
83,4
83,4
83,4
83,4
83,4
83,4
83,4
83,4
83,4
83,4
83,4
83,4
83,4
83,4
83,4
83,4
83,4
83,4
83,4
83,4
83,4
83,4
83,4
0,0
0,0
0,0
